55
Keggin H3[PMo11VO40] - Vanadio inflado e coordenacao O-V ajustada
P      0.000000    0.000000    0.000000
V      0.000000    0.000000    3.750000
Mo     0.000000    3.400000    1.200000
Mo     2.944500    1.700000    1.200000
Mo     2.944500   -1.700000    1.200000
Mo     0.000000   -3.400000    1.200000
Mo    -2.944500   -1.700000    1.200000
Mo    -2.944500    1.700000    1.200000
Mo     0.000000    1.950000   -3.000000
Mo     1.688700    0.975000   -3.000000
Mo     1.688700   -0.975000   -3.000000
Mo     0.000000   -1.950000   -3.000000
Mo    -1.688700   -0.975000   -3.000000
Mo    -1.688700    0.975000   -3.000000
O      0.000000    0.000000    1.540000
O      1.451900    0.838200   -0.513300
O     -1.451900    0.838200   -0.513300
O      0.000000   -1.676500   -0.513300
O      0.000000    0.000000    5.330000
O      0.000000    5.000000    1.780000
O      4.330100    2.500000    1.780000
O      4.330100   -2.500000    1.780000
O      0.000000   -5.000000    1.780000
O     -4.330100   -2.500000    1.780000
O     -4.330100    2.500000    1.780000
O      0.000000    2.880000   -4.420000
O      2.494100    1.440000   -4.420000
O      2.494100   -1.440000   -4.420000
O      0.000000   -2.880000   -4.420000
O     -2.494100   -1.440000   -4.420000
O     -2.494100    1.440000   -4.420000
O      1.650000    1.650000    2.850000
O     -1.650000    1.650000    2.850000
O      0.000000   -2.330000    2.850000
O      2.800000    0.000000    2.500000
O     -2.800000    0.000000    2.500000
O      0.000000    2.800000    2.500000
O      3.600000    0.000000   -1.280000
O      1.800000    3.117700   -1.280000
O     -1.800000    3.117700   -1.280000
O     -3.600000    0.000000   -1.280000
O     -1.800000   -3.117700   -1.280000
O      1.800000   -3.117700   -1.280000
O      1.180000    3.000000   -0.920000
O      3.000000    1.180000   -0.920000
O      3.000000   -1.180000   -0.920000
O      1.180000   -3.000000   -0.920000
O     -1.180000   -3.000000   -0.920000
O     -2.920000   -1.180000   -0.920000
O     -2.920000    1.180000   -0.920000
O     -1.180000    3.000000   -0.920000
H      2.250000    2.250000    3.100000
H     -2.250000    2.250000    3.100000
H      0.000000   -2.850000    3.100000